c SAT problem
p wcnf 211 555
1 -60 3120 0
1 -60 3135 0
1 75 3165 0
1 -105 3105 0
1 -105 106 0
1 -3120 -75 0
1 3120 -90 0
1 3135 -3136 0
1 -3135 -196 0
1 3135 75 0
1 3135 -120 0
1 -3150 -3151 0
1 3150 -3165 0
1 -3165 90 0
1 3165 60 0
1 120 3090 0
1 -135 3090 0
1 -165 3075 0
1 -165 3015 0
1 165 3060 0
1 -165 -3030 0
1 165 -3000 0
1 -3060 -3075 0
1 3060 -165 0
1 -3060 105 0
1 -3060 -150 0
1 3075 135 0
1 3075 105 0
1 3090 -226 0
1 -3090 3091 0
1 3090 -181 0
1 3090 -150 0
1 3105 165 0
1 -180 -3045 0
1 180 -3015 0
1 210 -3015 0
1 -225 3015 0
1 -225 3060 0
1 -3000 -300 0
1 -3015 225 0
1 3015 -300 0
1 3015 -210 0
1 -3015 180 0
1 -3030 225 0
1 3030 3031 0
1 -3030 255 0
1 -3045 -240 0
1 -3045 210 0
1 3045 -150 0
1 -3045 -3030 0
1 -61 -76 0
1 61 -3345 0
1 -61 60 0
1 -76 3300 0
1 -106 -3315 0
1 3300 3315 0
1 3315 3300 0
1 -3315 151 0
1 3315 121 0
1 -3330 -167 0
1 -3330 -182 0
1 3330 61 0
1 3345 -76 0
1 -121 -3270 0
1 -121 3240 0
1 -121 -120 0
1 121 -3165 0
1 151 3300 0
1 151 150 0
1 -151 -152 0
1 166 -3255 0
1 166 -165 0
1 -166 167 0
1 -3240 3255 0
1 -3240 136 0
1 -3240 -106 0
1 3255 256 0
1 -3255 -196 0
1 -3255 -151 0
1 3255 121 0
1 -3255 -91 0
1 3270 -227 0
1 3270 3285 0
1 3270 -91 0
1 3285 -182 0
1 181 -3195 0
1 196 3180 0
1 -196 -3150 0
1 -196 -3090 0
1 211 3136 0
1 -211 3105 0
1 211 3240 0
1 211 3210 0
1 -211 -3195 0
1 226 3240 0
1 -226 -3180 0
1 226 -3151 0
1 226 3090 0
1 -226 3195 0
1 -3180 301 0
1 3180 151 0
1 3195 211 0
1 3210 -3211 0
1 -3210 301 0
1 -3210 -151 0
1 -3210 286 0
1 -3225 316 0
1 240 -3045 0
1 -240 3151 0
1 240 -3121 0
1 -255 256 0
1 255 3090 0
1 -270 3076 0
1 -270 3151 0
1 -285 -3180 0
1 285 3151 0
1 285 -3121 0
1 285 -3195 0
1 -3121 3136 0
1 3121 -226 0
1 3121 330 0
1 3121 -211 0
1 -3121 -376 0
1 3121 -345 0
1 3136 226 0
1 3136 270 0
1 -3136 -240 0
1 -3136 3135 0
1 3136 315 0
1 -3136 -255 0
1 3151 346 0
1 3151 -316 0
1 -3151 -285 0
1 3151 255 0
1 -3166 270 0
1 -3166 3165 0
1 3166 -346 0
1 -3166 -255 0
1 300 -3061 0
1 315 3106 0
1 -315 3015 0
1 -315 3091 0
1 315 -316 0
1 330 3136 0
1 -345 3016 0
1 345 -330 0
1 345 -3091 0
1 -345 3001 0
1 345 -346 0
1 -3061 -330 0
1 -3061 270 0
1 3061 405 0
1 -3061 -375 0
1 3076 390 0
1 -3076 330 0
1 3076 -3061 0
1 -3091 361 0
1 3091 -3090 0
1 3091 -435 0
1 3091 3092 0
1 -3091 -315 0
1 -3106 300 0
1 -3106 345 0
1 -3106 285 0
1 360 -3046 0
1 -360 361 0
1 360 -3001 0
1 375 -3076 0
1 -390 3031 0
1 -405 -406 0
1 -3016 -3015 0
1 -3016 360 0
1 3016 345 0
1 3031 -3046 0
1 -3031 360 0
1 3031 -435 0
1 -3046 -420 0
1 3046 3047 0
1 -3046 -360 0
1 3046 330 0
1 3046 -465 0
1 62 3525 0
1 62 -77 0
1 -62 3480 0
1 77 -62 0
1 -92 3465 0
1 -92 107 0
1 92 -3435 0
1 -92 3510 0
1 107 -3525 0
1 -107 -3435 0
1 -3480 3495 0
1 3480 -107 0
1 -3495 -107 0
1 -3510 -3525 0
1 3525 -3526 0
1 -3525 -3510 0
1 3525 92 0
1 122 3480 0
1 -122 3450 0
1 122 -3420 0
1 137 -136 0
1 -137 3465 0
1 -137 -3480 0
1 137 122 0
1 152 -3360 0
1 -152 3405 0
1 152 3420 0
1 -152 -3390 0
1 -167 -3360 0
1 167 166 0
1 -167 -3345 0
1 167 -3390 0
1 -3420 182 0
1 -3420 -3421 0
1 -3435 3420 0
1 -3435 -122 0
1 -3450 -167 0
1 -3450 -137 0
1 -3450 107 0
1 -3450 -122 0
1 -3450 92 0
1 3465 -242 0
1 182 3330 0
1 182 -3435 0
1 -197 -3330 0
1 -212 -3346 0
1 -227 -3331 0
1 -227 3301 0
1 227 3435 0
1 227 3405 0
1 227 -212 0
1 3360 3361 0
1 3360 3375 0
1 -3360 241 0
1 -3360 -152 0
1 3375 256 0
1 -3375 271 0
1 3375 -3376 0
1 -3375 -286 0
1 -3390 -227 0
1 -3390 212 0
1 3390 152 0
1 3390 317 0
1 3405 227 0
1 3405 -152 0
1 -241 3331 0
1 241 -3301 0
1 241 -3346 0
1 -241 -3316 0
1 -256 -3331 0
1 256 241 0
1 271 -270 0
1 -271 3346 0
1 271 -3225 0
1 286 -285 0
1 -3301 -256 0
1 3301 227 0
1 -3301 3302 0
1 -3301 -331 0
1 3301 -241 0
1 -3301 346 0
1 3316 331 0
1 -3316 -301 0
1 3331 227 0
1 3331 -271 0
1 -3331 -241 0
1 -3331 -317 0
1 -3346 332 0
1 -3346 212 0
1 3346 -317 0
1 301 -3256 0
1 316 3301 0
1 316 3316 0
1 -316 3286 0
1 -316 3256 0
1 316 3166 0
1 -331 3211 0
1 331 -3151 0
1 -346 3151 0
1 346 3316 0
1 -346 3286 0
1 346 -345 0
1 3241 -391 0
1 3241 -361 0
1 -3241 -406 0
1 3241 -346 0
1 -3241 316 0
1 -3241 286 0
1 -3256 -3255 0
1 -3271 421 0
1 -3271 -392 0
1 -3271 -362 0
1 3271 -377 0
1 -3286 -421 0
1 -3286 -301 0
1 -3286 -407 0
1 361 3106 0
1 361 3211 0
1 -361 -3151 0
1 -391 390 0
1 -391 -3181 0
1 391 -3122 0
1 -391 3226 0
1 406 -3181 0
1 406 -3152 0
1 3181 496 0
1 3181 -465 0
1 -3181 -3196 0
1 -3196 3181 0
1 3196 376 0
1 -3196 -346 0
1 -3211 -421 0
1 -3211 -361 0
1 -3211 3212 0
1 3211 -376 0
1 -420 -3181 0
1 420 3152 0
1 420 -435 0
1 420 -3091 0
1 420 -3031 0
1 435 -3076 0
1 435 3122 0
1 -435 -436 0
1 -435 3031 0
1 -435 -3196 0
1 -450 451 0
1 -465 -3181 0
1 -465 -3092 0
1 3122 -3137 0
1 3122 -525 0
1 3122 -406 0
1 3137 -450 0
1 -3152 420 0
1 3152 -526 0
1 3152 496 0
1 3167 496 0
1 3167 -3152 0
1 3167 -435 0
1 3167 406 0
1 -3167 3166 0
1 480 3107 0
1 480 3016 0
1 480 -495 0
1 -480 3001 0
1 -495 -3077 0
1 495 -496 0
1 -495 -3031 0
1 -510 3107 0
1 510 -3032 0
1 525 -3107 0
1 525 3047 0
1 -3077 555 0
1 -3077 465 0
1 -3092 -3091 0
1 3092 -510 0
1 3107 -480 0
1 -3107 -450 0
1 3107 -3106 0
1 -3107 495 0
1 3107 -3092 0
1 3107 -541 0
1 -540 555 0
1 540 -3062 0
1 -540 3002 0
1 -555 3062 0
1 570 -3002 0
1 -570 571 0
1 585 -3077 0
1 -3002 585 0
1 -3002 -3017 0
1 -3002 -525 0
1 3002 -3001 0
1 -3017 -3002 0
1 -3017 -525 0
1 3032 -3047 0
1 -3032 510 0
1 -3047 -570 0
1 3047 510 0
1 -242 3496 0
1 -257 -3465 0
1 -257 242 0
1 257 3390 0
1 -272 3526 0
1 272 3451 0
1 3481 -257 0
1 -3481 332 0
1 3481 272 0
1 -3496 332 0
1 -3496 287 0
1 302 -3331 0
1 -302 -3466 0
1 302 3375 0
1 302 3390 0
1 -317 3331 0
1 317 3421 0
1 -332 3496 0
1 -332 3466 0
1 332 -3406 0
1 332 3451 0
1 332 3391 0
1 347 -3481 0
1 -347 -346 0
1 347 3451 0
1 347 -3421 0
1 -3421 -392 0
1 3421 -332 0
1 3421 302 0
1 3421 -437 0
1 -3421 -317 0
1 3451 -317 0
1 -3451 287 0
1 -3466 -332 0
1 3466 -3467 0
1 -3466 3451 0
1 -3466 437 0
1 -3466 -317 0
1 3466 -287 0
1 362 3406 0
1 377 3331 0
1 -392 391 0
1 -392 -3436 0
1 -392 3317 0
1 407 3376 0
1 -407 3317 0
1 -407 -3286 0
1 -3361 -482 0
1 -3376 482 0
1 3376 -451 0
1 3376 421 0
1 -3376 -332 0
1 3376 3375 0
1 -3376 -407 0
1 3376 -377 0
1 -3391 482 0
1 -3391 -362 0
1 3391 437 0
1 -3391 347 0
1 -3391 3390 0
1 3406 -422 0
1 3406 3407 0
1 3406 407 0
1 3406 -3391 0
1 -421 -3302 0
1 -421 436 0
1 421 -3317 0
1 -421 -3256 0
1 -436 3361 0
1 -436 3302 0
1 -436 3211 0
1 -436 3317 0
1 -436 3226 0
1 -451 452 0
1 451 -3332 0
1 451 3211 0
1 451 -3376 0
1 466 467 0
1 -466 3347 0
1 466 3257 0
1 466 -3226 0
1 3302 -436 0
1 -3302 407 0
1 3317 481 0
1 3317 -3302 0
1 3317 436 0
1 -3317 3316 0
1 3332 451 0
1 3332 -557 0
1 3332 527 0
1 -3332 -497 0
1 3332 3347 0
1 3347 451 0
1 -3347 -436 0
1 481 -3211 0
1 481 3181 0
1 -481 -3287 0
1 496 -3181 0
1 -496 -3257 0
1 -511 -3272 0
1 -511 -526 0
1 -511 3152 0
1 -511 3197 0
1 -526 -3212 0
1 -526 525 0
1 -526 3152 0
1 526 -3197 0
1 -3242 -451 0
1 3242 3257 0
1 -3242 -586 0
1 3242 511 0
1 3257 -481 0
1 -3257 586 0
1 -3272 481 0
1 3272 -3271 0
1 3272 -587 0
1 3272 511 0
1 3287 526 0
1 -3287 572 0
1 541 -3257 0
1 541 3197 0
1 -556 3257 0
1 -571 3107 0
1 -571 -572 0
1 -586 -3227 0
1 -586 -3257 0
1 3182 586 0
1 -3182 526 0
1 -3197 556 0
1 -3197 -3182 0
1 3212 -556 0
1 3212 -511 0
1 -3227 3226 0
1 -3227 -571 0
1 422 437 0
1 422 3391 0
1 -437 -3406 0
1 437 -436 0
1 452 -3406 0
1 452 3452 0
1 -452 -3422 0
1 467 -3467 0
1 -467 -3406 0
1 467 -3391 0
1 -3482 422 0
1 -3497 -497 0
1 -3497 -3482 0
1 3527 -452 0
1 -3527 -3512 0
1 3527 467 0
1 -482 -3361 0
1 -482 -3332 0
1 -482 -3467 0
1 -482 3347 0
1 482 3422 0
1 -497 482 0
1 497 3376 0
1 497 -3452 0
1 497 -3422 0
1 -512 3332 0
1 -527 3482 0
1 3422 -3437 0
1 3437 512 0
1 -3437 -3436 0
1 3437 -557 0
1 -3437 -572 0
1 3452 512 0
1 3467 512 0
1 -557 -3362 0
1 -557 3422 0
1 -572 3437 0
1 -572 -3407 0
1 -572 3422 0
1 -3362 -557 0
1 3362 527 0
1 3362 -572 0
